p cnf 7230 17
-1528 -2092 -2806 0
-584 -2556 -2804 0
-582 -2558 -2802 0
1528 -2807 0
584 -2805 0
582 -2803 0
2806 2807 0
2804 2805 0
2802 2803 0
2092 -2807 0
2556 -2805 0
2558 -2803 0
-1530 -2632 2809 0
2800 2801 0
-2800 -2801 0
2632 -2809 0
1530 -2809 0
